[VALIDATOR STDOUT]
Checking plan: /home/jfan5/Safety-gen/runs/benchmark/optic/delivery_20260201_172908/delivery/optic_results/delivery_size43_packages1_seed43001.plan
Plan executed successfully - checking goal
Plan valid
Final value: 160 

Successful plans:
Value: 160
 /home/jfan5/Safety-gen/runs/benchmark/optic/delivery_20260201_172908/delivery/optic_results/delivery_size43_packages1_seed43001.plan 160
